     Program PWSCF v.6.6 starts on  9Feb2021 at 11:58: 6

     K-points division:     npool     =      16
     R & G space division:  proc/nbgrp/npool/nimage =      12
     Fft bands division:     nmany     =       1
     Waiting for input...
     Reading input from standard input

     Current dimensions of program PWSCF are:
     Max number of different atomic species (ntypx) = 10
     Max number of k-points (npk) =  40000
     Max angular momentum in pseudopotentials (lmaxx) =  3
     Message from routine scan_end:
     No INFO block end statement, possibly corrupted file
     Message from routine scan_end:
     No INFO block end statement, possibly corrupted file
     Message from routine scan_end:
     No INFO block end statement, possibly corrupted file
     Message from routine scan_end:
     No INFO block end statement, possibly corrupted file

     IMPORTANT: XC functional enforced from input :
     Exchange-correlation= PBESOL
                           (   1   4  10   8   0   0   0)
     Any further DFT definition will be discarded
     Please, verify this is what you really want

     Subspace diagonalization in iterative solution of the eigenvalue problem:
     one sub-group per band group will be used

     Title:
     bto

     bravais-lattice index     =            0
     lattice parameter (alat)  =      15.9892  a.u.
     unit-cell volume          =    3889.7957 (a.u.)^3
     number of atoms/cell      =           40
     number of atomic types    =            4
     number of electrons       =       320.00
     number of Kohn-Sham states=          160
     kinetic-energy cutoff     =      50.0000  Ry
     charge density cutoff     =     200.0000  Ry
     convergence threshold     =      1.0E-09
     mixing beta               =       0.7000
     number of iterations used =            8  plain     mixing
     Exchange-correlation= PBESOL
                           (   1   4  10   8   0   0   0)
     nstep                     =       100000

     celldm(1)=  15.989208  celldm(2)=   0.000000  celldm(3)=   0.000000
     celldm(4)=   0.000000  celldm(5)=   0.000000  celldm(6)=   0.000000

     crystal axes: (cart. coord. in units of alat)
               a(1) = (   1.000000   0.000000   0.000000 )
               a(2) = (   0.000000   0.981736   0.000000 )
               a(3) = (   0.000000   0.000000   0.969284 )

     reciprocal axes: (cart. coord. in units 2 pi/alat)
               b(1) = (  1.000000  0.000000  0.000000 )
               b(2) = (  0.000000  1.018604  0.000000 )
               b(3) = (  0.000000  0.000000  1.031689 )

     PseudoPot. # 1 for Ba read from file:
     ./ba.upf
     MD5 check sum: 569c1dde556b1c81f66e1af894da4ae7
     Pseudo is Norm-conserving, Zval = 10.0
     Generated by new atomic code, or converted to UPF format
     Using radial grid of 1179 points,  3 beta functions with:
                l(1) =   0
                l(2) =   1
                l(3) =   2

     PseudoPot. # 2 for O  read from file:
     ./o.upf
     MD5 check sum: 6afdad5913fe366ac5de9e6b2d735f4a
     Pseudo is Norm-conserving, Zval =  6.0
     Generated by new atomic code, or converted to UPF format
     Using radial grid of 1130 points,  1 beta functions with:
                l(1) =   1

     PseudoPot. # 3 for Zr read from file:
     ./zr.upf
     MD5 check sum: 4323fbb0604ce3758ff2f6a711565820
     Pseudo is Norm-conserving, Zval = 12.0
     Generated by new atomic code, or converted to UPF format
     Using radial grid of 1171 points,  3 beta functions with:
                l(1) =   0
                l(2) =   1
                l(3) =   2

     PseudoPot. # 4 for Ca read from file:
     ./ca.upf
     MD5 check sum: 9d40c44c50ef0ff3e83632165cb52c7c
     Pseudo is Norm-conserving, Zval = 10.0
     Generated by new atomic code, or converted to UPF format
     Using radial grid of 1153 points,  3 beta functions with:
                l(1) =   0
                l(2) =   1
                l(3) =   2

     atomic species   valence    mass     pseudopotential
        Ba            10.00   137.32700     Ba( 1.00)
        O              6.00    15.99940     O ( 1.00)
        Zr            12.00    47.86700     Zr( 1.00)
        Ca            10.00    40.08700     Ca( 1.00)

     No symmetry found

                                    s                        frac. trans.

      isym =  1     identity

 cryst.   s( 1) = (     1          0          0      )
                  (     0          1          0      )
                  (     0          0          1      )

 cart.    s( 1) = (  1.0000000  0.0000000  0.0000000 )
                  (  0.0000000  1.0000000  0.0000000 )
                  (  0.0000000  0.0000000  1.0000000 )

   Cartesian axes

     site n.     atom                  positions (alat units)
         1           Ca  tau(   1) = (   0.0624785   0.0254325   0.0002445  )
         2           Ca  tau(   2) = (   0.5624675   0.5162984   0.0002528  )
         3           Ca  tau(   3) = (   0.0624835   0.4653257   0.0002623  )
         4           Ca  tau(   4) = (   0.5624925  -0.0255358   0.0002533  )
         5           Ba  tau(   5) = (   0.0067634   0.0015334   0.4849060  )
         6           Ba  tau(   6) = (   0.0067833   0.4893745   0.4849045  )
         7           Ba  tau(   7) = (   0.5067741  -0.0014990   0.4848915  )
         8           Ba  tau(   8) = (   0.5067667   0.4923987   0.4848918  )
         9           Zr  tau(   9) = (   0.2633438   0.2454368   0.2416007  )
        10           Zr  tau(  10) = (   0.2633963   0.2454263   0.7281122  )
        11           Zr  tau(  11) = (   0.2546782   0.7362962   0.2332053  )
        12           Zr  tau(  12) = (   0.2547186   0.7362773   0.7366090  )
        13           Zr  tau(  13) = (   0.7546872   0.2454292   0.2332045  )
        14           Zr  tau(  14) = (   0.7547181   0.2454124   0.7366048  )
        15           Zr  tau(  15) = (   0.7633435   0.7363111   0.2415995  )
        16           Zr  tau(  16) = (   0.7633894   0.7362997   0.7281102  )
        17           O   tau(  17) = (   0.2346016   0.0006917   0.2306155  )
        18           O   tau(  18) = (   0.2347258   0.0006741   0.7391267  )
        19           O   tau(  19) = (   0.2344989   0.4901870   0.2307586  )
        20           O   tau(  20) = (   0.2345131   0.4901688   0.7389886  )
        21           O   tau(  21) = (   0.7344944  -0.0006736   0.2308048  )
        22           O   tau(  22) = (   0.7345010  -0.0006912   0.7389448  )
        23           O   tau(  23) = (   0.7346123   0.4915657   0.2305775  )
        24           O   tau(  24) = (   0.7347304   0.4915493   0.7391679  )
        25           O   tau(  25) = (   0.2711474   0.2455903   0.0002296  )
        26           O   tau(  26) = (   0.2092332   0.2454047   0.4848696  )
        27           O   tau(  27) = (   0.1761360   0.7362484   0.0002518  )
        28           O   tau(  28) = (   0.2858845   0.7363382   0.4848914  )
        29           O   tau(  29) = (   0.6761454   0.2453506   0.0002456  )
        30           O   tau(  30) = (   0.7858923   0.2455073   0.4848846  )
        31           O   tau(  31) = (   0.7711356   0.7365427   0.0002307  )
        32           O   tau(  32) = (   0.7092290   0.7362621   0.4848716  )
        33           O   tau(  33) = (  -0.0033143   0.2453886   0.1873759  )
        34           O   tau(  34) = (  -0.0032860   0.2452950   0.7823745  )
        35           O   tau(  35) = (  -0.0010112   0.7363565   0.2870979  )
        36           O   tau(  36) = (  -0.0009648   0.7363745   0.6827216  )
        37           O   tau(  37) = (   0.4989930   0.2454976   0.2870861  )
        38           O   tau(  38) = (   0.4990372   0.2455156   0.6827090  )
        39           O   tau(  39) = (   0.4966803   0.7362510   0.1873876  )
        40           O   tau(  40) = (   0.4967124   0.7361662   0.7823765  )

   Crystallographic axes

     site n.     atom                  positions (cryst. coord.)
         1           Ca  tau(   1) = (  0.0624785  0.0259057  0.0002522  )
         2           Ca  tau(   2) = (  0.5624675  0.5259034  0.0002608  )
         3           Ca  tau(   3) = (  0.0624835  0.4739825  0.0002706  )
         4           Ca  tau(   4) = (  0.5624925 -0.0260109  0.0002613  )
         5           Ba  tau(   5) = (  0.0067634  0.0015619  0.5002722  )
         6           Ba  tau(   6) = (  0.0067833  0.4984787  0.5002707  )
         7           Ba  tau(   7) = (  0.5067741 -0.0015269  0.5002573  )
         8           Ba  tau(   8) = (  0.5067667  0.5015591  0.5002576  )
         9           Zr  tau(   9) = (  0.2633438  0.2500029  0.2492568  )
        10           Zr  tau(  10) = (  0.2633963  0.2499922  0.7511854  )
        11           Zr  tau(  11) = (  0.2546782  0.7499940  0.2405954  )
        12           Zr  tau(  12) = (  0.2547186  0.7499747  0.7599515  )
        13           Zr  tau(  13) = (  0.7546872  0.2499950  0.2405945  )
        14           Zr  tau(  14) = (  0.7547181  0.2499779  0.7599472  )
        15           Zr  tau(  15) = (  0.7633435  0.7500091  0.2492556  )
        16           Zr  tau(  16) = (  0.7633894  0.7499976  0.7511833  )
        17           O   tau(  17) = (  0.2346016  0.0007046  0.2379235  )
        18           O   tau(  18) = (  0.2347258  0.0006867  0.7625489  )
        19           O   tau(  19) = (  0.2344989  0.4993063  0.2380711  )
        20           O   tau(  20) = (  0.2345131  0.4992877  0.7624065  )
        21           O   tau(  21) = (  0.7344944 -0.0006861  0.2381188  )
        22           O   tau(  22) = (  0.7345010 -0.0007041  0.7623613  )
        23           O   tau(  23) = (  0.7346123  0.5007106  0.2378843  )
        24           O   tau(  24) = (  0.7347304  0.5006939  0.7625915  )
        25           O   tau(  25) = (  0.2711474  0.2501592  0.0002369  )
        26           O   tau(  26) = (  0.2092332  0.2499701  0.5002347  )
        27           O   tau(  27) = (  0.1761360  0.7499453  0.0002598  )
        28           O   tau(  28) = (  0.2858845  0.7500368  0.5002571  )
        29           O   tau(  29) = (  0.6761454  0.2499150  0.0002534  )
        30           O   tau(  30) = (  0.7858923  0.2500746  0.5002501  )
        31           O   tau(  31) = (  0.7711356  0.7502451  0.0002380  )
        32           O   tau(  32) = (  0.7092290  0.7499592  0.5002367  )
        33           O   tau(  33) = ( -0.0033143  0.2499537  0.1933136  )
        34           O   tau(  34) = ( -0.0032860  0.2498584  0.8071672  )
        35           O   tau(  35) = ( -0.0010112  0.7500554  0.2961958  )
        36           O   tau(  36) = ( -0.0009648  0.7500737  0.7043564  )
        37           O   tau(  37) = (  0.4989930  0.2500647  0.2961836  )
        38           O   tau(  38) = (  0.4990372  0.2500831  0.7043435  )
        39           O   tau(  39) = (  0.4966803  0.7499479  0.1933257  )
        40           O   tau(  40) = (  0.4967124  0.7498615  0.8071693  )

     number of k points=    36
                       cart. coord. in units 2pi/alat
        k(    1) = (   0.0000000   0.0000000   0.0000000), wk =   0.0312500
[...]
     atom   18 type  2   force =     0.74846046   -0.46016995   -1.71753175
     atom   19 type  2   force =     0.73803236    0.46105141    1.72627090
     atom   20 type  2   force =     0.73621161    0.46056965   -1.72378325
     atom   21 type  2   force =     0.73755836    0.46091615    1.72703914
     atom   22 type  2   force =     0.73570133    0.46036343   -1.72456699
     atom   23 type  2   force =     0.74868687   -0.46100784    1.72001336
     atom   24 type  2   force =     0.74893082   -0.46031214   -1.71674487
     atom   25 type  2   force =     4.34647339    0.00154870   -0.00519769
     atom   26 type  2   force =    -1.61508786   -0.00315551   -0.00336927
     atom   27 type  2   force =    -2.52630417   -0.00261537    0.00082144
     atom   28 type  2   force =     1.28790657    0.00442289    0.00132765
     atom   29 type  2   force =    -2.52621918   -0.00204743    0.00083026
     atom   30 type  2   force =     1.28792313    0.00541756    0.00137177
     atom   31 type  2   force =     4.34646043    0.00202861   -0.00520905
     atom   32 type  2   force =    -1.61503827   -0.00419146   -0.00335317
     atom   33 type  2   force =    -0.13395381   -0.00366093    1.11652321
     atom   34 type  2   force =    -0.12971296   -0.00410178   -1.11612328
     atom   35 type  2   force =     1.13775229    0.00251285    1.75267273
     atom   36 type  2   force =     1.13992542    0.00356838   -1.75026978
     atom   37 type  2   force =     1.13779526    0.00304465    1.75269505
     atom   38 type  2   force =     1.13994433    0.00407990   -1.75035147
     atom   39 type  2   force =    -0.13391755   -0.00379060    1.11646759
     atom   40 type  2   force =    -0.12967702   -0.00424788   -1.11607777
     The local contribution  to forces
     atom    1 type  4   force =     5.33414370    3.27975530    0.00249864
     atom    2 type  4   force =     5.33352189    3.27988668    0.00251667
     atom    3 type  4   force =     5.34335295   -3.28873155    0.00298623
     atom    4 type  4   force =     5.34387388   -3.28836265    0.00296244
     atom    5 type  1   force =     0.88963894   -0.63446718    0.00043108
     atom    6 type  1   force =     0.89945130    0.63512412    0.00094723
     atom    7 type  1   force =     0.89961398    0.63493304    0.00086313
     atom    8 type  1   force =     0.88943354   -0.63461374    0.00037865
     atom    9 type  3   force =    -1.53099403    0.00672730   -3.15252567
     atom   10 type  3   force =    -1.52443892    0.00644192    3.14855761
     atom   11 type  3   force =    -1.30154223   -0.00292712   -2.65383454
     atom   12 type  3   force =    -1.30095660   -0.00270205    2.65300429
     atom   13 type  3   force =    -1.30161362   -0.00399554   -2.65388490
     atom   14 type  3   force =    -1.30100221   -0.00375605    2.65302970
     atom   15 type  3   force =    -1.53110928    0.00823832   -3.15242431
     atom   16 type  3   force =    -1.52447786    0.00790329    3.14849724
     atom   17 type  2   force =    -0.74955440    0.45002237   -1.70573375
     atom   18 type  2   force =    -0.74988552    0.44931603    1.70269772
     atom   19 type  2   force =    -0.73997821   -0.45030097   -1.71098615
     atom   20 type  2   force =    -0.73822427   -0.44983638    1.70869350
     atom   21 type  2   force =    -0.73954142   -0.45018516   -1.71172422
     atom   22 type  2   force =    -0.73775156   -0.44965765    1.70944733
     atom   23 type  2   force =    -0.75010347    0.45008608   -1.70497770
     atom   24 type  2   force =    -0.75032421    0.44943217    1.70193852
     atom   25 type  2   force =    -4.21104219   -0.00138282    0.00458017
     atom   26 type  2   force =     1.55096248    0.00324668    0.00291098
     atom   27 type  2   force =     2.32969778    0.00248575   -0.00070361
     atom   28 type  2   force =    -1.27434762   -0.00429733   -0.00113827
     atom   29 type  2   force =     2.32961739    0.00194526   -0.00070806
     atom   30 type  2   force =    -1.27436342   -0.00528006   -0.00117753
     atom   31 type  2   force =    -4.21103325   -0.00179626    0.00458968
     atom   32 type  2   force =     1.55091509    0.00427401    0.00289480
     atom   33 type  2   force =     0.27145067    0.00355450   -1.15590143
     atom   34 type  2   force =     0.26758721    0.00400334    1.15554071
     atom   35 type  2   force =    -0.96659384   -0.00244076   -1.70600188
     atom   36 type  2   force =    -0.96845761   -0.00346482    1.70386877
     atom   37 type  2   force =    -0.96663331   -0.00297691   -1.70602665
     atom   38 type  2   force =    -0.96847754   -0.00398143    1.70394477
     atom   39 type  2   force =     0.27141500    0.00369630   -1.15584684
     atom   40 type  2   force =     0.26755435    0.00416033    1.15549805
     The core correction contribution to forces
     atom    1 type  4   force =     0.00000000    0.00000000    0.00000000
     atom    2 type  4   force =     0.00000000    0.00000000    0.00000000
     atom    3 type  4   force =     0.00000000    0.00000000    0.00000000
     atom    4 type  4   force =     0.00000000    0.00000000    0.00000000
     atom    5 type  1   force =     0.00000000    0.00000000    0.00000000
     atom    6 type  1   force =     0.00000000    0.00000000    0.00000000
     atom    7 type  1   force =     0.00000000    0.00000000    0.00000000
     atom    8 type  1   force =     0.00000000    0.00000000    0.00000000
     atom    9 type  3   force =     0.00000000    0.00000000    0.00000000
     atom   10 type  3   force =     0.00000000    0.00000000    0.00000000
     atom   11 type  3   force =     0.00000000    0.00000000    0.00000000
     atom   12 type  3   force =     0.00000000    0.00000000    0.00000000
     atom   13 type  3   force =     0.00000000    0.00000000    0.00000000
     atom   14 type  3   force =     0.00000000    0.00000000    0.00000000
     atom   15 type  3   force =     0.00000000    0.00000000    0.00000000
     atom   16 type  3   force =     0.00000000    0.00000000    0.00000000
     atom   17 type  2   force =     0.00000000    0.00000000    0.00000000
     atom   18 type  2   force =     0.00000000    0.00000000    0.00000000
     atom   19 type  2   force =     0.00000000    0.00000000    0.00000000
     atom   20 type  2   force =     0.00000000    0.00000000    0.00000000
     atom   21 type  2   force =     0.00000000    0.00000000    0.00000000
     atom   22 type  2   force =     0.00000000    0.00000000    0.00000000
     atom   23 type  2   force =     0.00000000    0.00000000    0.00000000
     atom   24 type  2   force =     0.00000000    0.00000000    0.00000000
     atom   25 type  2   force =     0.00000000    0.00000000    0.00000000
     atom   26 type  2   force =     0.00000000    0.00000000    0.00000000
     atom   27 type  2   force =     0.00000000    0.00000000    0.00000000
     atom   28 type  2   force =     0.00000000    0.00000000    0.00000000
     atom   29 type  2   force =     0.00000000    0.00000000    0.00000000
     atom   30 type  2   force =     0.00000000    0.00000000    0.00000000
     atom   31 type  2   force =     0.00000000    0.00000000    0.00000000
     atom   32 type  2   force =     0.00000000    0.00000000    0.00000000
     atom   33 type  2   force =     0.00000000    0.00000000    0.00000000
     atom   34 type  2   force =     0.00000000    0.00000000    0.00000000
     atom   35 type  2   force =     0.00000000    0.00000000    0.00000000
     atom   36 type  2   force =     0.00000000    0.00000000    0.00000000
     atom   37 type  2   force =     0.00000000    0.00000000    0.00000000
     atom   38 type  2   force =     0.00000000    0.00000000    0.00000000
     atom   39 type  2   force =     0.00000000    0.00000000    0.00000000
     atom   40 type  2   force =     0.00000000    0.00000000    0.00000000
     The Hubbard contrib.    to forces
     atom    1 type  4   force =     0.00000000    0.00000000    0.00000000
     atom    2 type  4   force =     0.00000000    0.00000000    0.00000000
     atom    3 type  4   force =     0.00000000    0.00000000    0.00000000
     atom    4 type  4   force =     0.00000000    0.00000000    0.00000000
     atom    5 type  1   force =     0.00000000    0.00000000    0.00000000
     atom    6 type  1   force =     0.00000000    0.00000000    0.00000000
     atom    7 type  1   force =     0.00000000    0.00000000    0.00000000
     atom    8 type  1   force =     0.00000000    0.00000000    0.00000000
     atom    9 type  3   force =     0.00000000    0.00000000    0.00000000
     atom   10 type  3   force =     0.00000000    0.00000000    0.00000000
     atom   11 type  3   force =     0.00000000    0.00000000    0.00000000
     atom   12 type  3   force =     0.00000000    0.00000000    0.00000000
     atom   13 type  3   force =     0.00000000    0.00000000    0.00000000
     atom   14 type  3   force =     0.00000000    0.00000000    0.00000000
     atom   15 type  3   force =     0.00000000    0.00000000    0.00000000
     atom   16 type  3   force =     0.00000000    0.00000000    0.00000000
     atom   17 type  2   force =     0.00000000    0.00000000    0.00000000
     atom   18 type  2   force =     0.00000000    0.00000000    0.00000000
     atom   19 type  2   force =     0.00000000    0.00000000    0.00000000
     atom   20 type  2   force =     0.00000000    0.00000000    0.00000000
     atom   21 type  2   force =     0.00000000    0.00000000    0.00000000
     atom   22 type  2   force =     0.00000000    0.00000000    0.00000000
     atom   23 type  2   force =     0.00000000    0.00000000    0.00000000
     atom   24 type  2   force =     0.00000000    0.00000000    0.00000000
     atom   25 type  2   force =     0.00000000    0.00000000    0.00000000
     atom   26 type  2   force =     0.00000000    0.00000000    0.00000000
     atom   27 type  2   force =     0.00000000    0.00000000    0.00000000
     atom   28 type  2   force =     0.00000000    0.00000000    0.00000000
     atom   29 type  2   force =     0.00000000    0.00000000    0.00000000
     atom   30 type  2   force =     0.00000000    0.00000000    0.00000000
     atom   31 type  2   force =     0.00000000    0.00000000    0.00000000
     atom   32 type  2   force =     0.00000000    0.00000000    0.00000000
     atom   33 type  2   force =     0.00000000    0.00000000    0.00000000
     atom   34 type  2   force =     0.00000000    0.00000000    0.00000000
     atom   35 type  2   force =     0.00000000    0.00000000    0.00000000
     atom   36 type  2   force =     0.00000000    0.00000000    0.00000000
     atom   37 type  2   force =     0.00000000    0.00000000    0.00000000
     atom   38 type  2   force =     0.00000000    0.00000000    0.00000000
     atom   39 type  2   force =     0.00000000    0.00000000    0.00000000
     atom   40 type  2   force =     0.00000000    0.00000000    0.00000000
     The SCF correction term to forces
     atom    1 type  4   force =    -0.00000005   -0.00000007   -0.00000001
     atom    2 type  4   force =    -0.00000005   -0.00000009    0.00000000
     atom    3 type  4   force =    -0.00000005    0.00000006   -0.00000000
     atom    4 type  4   force =    -0.00000005    0.00000009    0.00000000
     atom    5 type  1   force =     0.00000001    0.00000001    0.00000000
     atom    6 type  1   force =     0.00000001   -0.00000001   -0.00000000
     atom    7 type  1   force =    -0.00000001    0.00000000   -0.00000000
     atom    8 type  1   force =    -0.00000001   -0.00000000    0.00000000
     atom    9 type  3   force =     0.00000003    0.00000000   -0.00000032
     atom   10 type  3   force =     0.00000003   -0.00000000    0.00000033
     atom   11 type  3   force =     0.00000001    0.00000000   -0.00000046
     atom   12 type  3   force =    -0.00000000    0.00000001    0.00000047
     atom   13 type  3   force =     0.00000003   -0.00000000   -0.00000047
     atom   14 type  3   force =     0.00000002   -0.00000000    0.00000046
     atom   15 type  3   force =     0.00000006    0.00000000   -0.00000033
     atom   16 type  3   force =     0.00000007    0.00000000    0.00000033
     atom   17 type  2   force =    -0.00000001   -0.00000032   -0.00000033
     atom   18 type  2   force =    -0.00000002   -0.00000033    0.00000034
     atom   19 type  2   force =    -0.00000001    0.00000032   -0.00000033
     atom   20 type  2   force =    -0.00000002    0.00000033    0.00000033
     atom   21 type  2   force =    -0.00000000    0.00000033   -0.00000034
     atom   22 type  2   force =    -0.00000000    0.00000034    0.00000034
     atom   23 type  2   force =    -0.00000000   -0.00000033   -0.00000034
     atom   24 type  2   force =    -0.00000000   -0.00000034    0.00000034
     atom   25 type  2   force =    -0.00000005   -0.00000000    0.00000001
     atom   26 type  2   force =    -0.00000003   -0.00000000   -0.00000001
     atom   27 type  2   force =     0.00000017    0.00000000   -0.00000000
     atom   28 type  2   force =    -0.00000003   -0.00000000   -0.00000000
     atom   29 type  2   force =     0.00000018    0.00000000    0.00000000
     atom   30 type  2   force =    -0.00000002   -0.00000000    0.00000000
     atom   31 type  2   force =    -0.00000003    0.00000000    0.00000000
     atom   32 type  2   force =    -0.00000003   -0.00000000   -0.00000000
     atom   33 type  2   force =    -0.00000028    0.00000000   -0.00000036
     atom   34 type  2   force =    -0.00000028   -0.00000000    0.00000037
     atom   35 type  2   force =     0.00000030    0.00000000   -0.00000030
     atom   36 type  2   force =     0.00000030    0.00000000    0.00000030
     atom   37 type  2   force =     0.00000027    0.00000000   -0.00000030
     atom   38 type  2   force =     0.00000030    0.00000000    0.00000030
     atom   39 type  2   force =    -0.00000029    0.00000000   -0.00000036
     atom   40 type  2   force =    -0.00000030    0.00000000    0.00000036

     Total force =     0.000168     Total SCF correction =     0.000002

     Computing stress (Cartesian axis) and pressure

          total   stress  (Ry/bohr**3)                   (kbar)     P=       -1.64
  -0.00001941  -0.00000026   0.00000011           -2.86       -0.04        0.02
  -0.00000026  -0.00000717  -0.00000001           -0.04       -1.05       -0.00
   0.00000011  -0.00000001  -0.00000681            0.02       -0.00       -1.00

     kinetic stress (kbar)  22728.31     -0.09      0.04
                               -0.09  22704.74     -0.01
                                0.04     -0.01  22716.61

     local   stress (kbar)  14017.10      1.72     -1.31
                                1.72   9779.93      0.63
                               -1.31      0.63  10191.98

     nonloc. stress (kbar) -15063.35      0.05     -0.03
                                0.05 -15045.53      0.01
                               -0.03      0.01 -15058.30

     hartree stress (kbar)   4482.98     -0.69      0.44
                               -0.69   5998.51     -0.21
                                0.44     -0.21   5938.61

     exc-cor stress (kbar)  -3984.29     -0.00      0.00
                               -0.00  -3981.33     -0.00
                                0.00     -0.00  -3982.50

     corecor stress (kbar)      0.00      0.00      0.00
                                0.00      0.00      0.00
                                0.00      0.00      0.00

     ewald   stress (kbar) -22183.61     -1.03      0.87
                               -1.03 -19457.38     -0.42
                                0.87     -0.42 -19807.40

     hubbard stress (kbar)      0.00      0.00      0.00
                                0.00      0.00      0.00
                                0.00      0.00      0.00

     DFT-D   stress (kbar)      0.00      0.00      0.00
                                0.00      0.00      0.00
                                0.00      0.00      0.00

     XDM     stress (kbar)      0.00      0.00      0.00
                                0.00      0.00      0.00
                                0.00      0.00      0.00

     dft-nl  stress (kbar)      0.00      0.00      0.00
                                0.00      0.00      0.00
                                0.00      0.00      0.00

     TS-vdW  stress (kbar)      0.00      0.00      0.00
                                0.00      0.00      0.00
                                0.00      0.00      0.00

     Writing output data file ./bto.save/

     General routines

     Parallel routines

   This run was terminated on:  12:10:58   9Feb2021

   JOB DONE.