     Program PWSCF v.6.6 starts on  9Feb2021 at 11:56: 9

     K-points division:     npool     =      16
     R & G space division:  proc/nbgrp/npool/nimage =      12
     Fft bands division:     nmany     =       1
     Waiting for input...
     Reading input from standard input

     Current dimensions of program PWSCF are:
     Max number of different atomic species (ntypx) = 10
     Max number of k-points (npk) =  40000
     Max angular momentum in pseudopotentials (lmaxx) =  3
     Message from routine scan_end:
     No INFO block end statement, possibly corrupted file
     Message from routine scan_end:
     No INFO block end statement, possibly corrupted file
     Message from routine scan_end:
     No INFO block end statement, possibly corrupted file
     Message from routine scan_end:
     No INFO block end statement, possibly corrupted file

     IMPORTANT: XC functional enforced from input :
     Exchange-correlation= PBESOL
                           (   1   4  10   8   0   0   0)
     Any further DFT definition will be discarded
     Please, verify this is what you really want

     Subspace diagonalization in iterative solution of the eigenvalue problem:
     one sub-group per band group will be used

     Title:
     bto

     bravais-lattice index     =            0
     lattice parameter (alat)  =      15.8325  a.u.
     unit-cell volume          =    3851.6604 (a.u.)^3
     number of atoms/cell      =           40
     number of atomic types    =            4
     number of electrons       =       320.00
     number of Kohn-Sham states=          160
     kinetic-energy cutoff     =      50.0000  Ry
     charge density cutoff     =     200.0000  Ry
     convergence threshold     =      1.0E-09
     mixing beta               =       0.7000
     number of iterations used =            8  plain     mixing
     Exchange-correlation= PBESOL
                           (   1   4  10   8   0   0   0)
     nstep                     =       100000

     celldm(1)=  15.832451  celldm(2)=   0.000000  celldm(3)=   0.000000
     celldm(4)=   0.000000  celldm(5)=   0.000000  celldm(6)=   0.000000

     crystal axes: (cart. coord. in units of alat)
               a(1) = (   1.000000   0.000000   0.000000 )
               a(2) = (   0.000000   0.991456   0.000000 )
               a(3) = (   0.000000   0.000000   0.978881 )

     reciprocal axes: (cart. coord. in units 2 pi/alat)
               b(1) = (  1.000000  0.000000  0.000000 )
               b(2) = (  0.000000  1.008617  0.000000 )
               b(3) = (  0.000000  0.000000  1.021574 )

     PseudoPot. # 1 for Ba read from file:
     ./ba.upf
     MD5 check sum: 569c1dde556b1c81f66e1af894da4ae7
     Pseudo is Norm-conserving, Zval = 10.0
     Generated by new atomic code, or converted to UPF format
     Using radial grid of 1179 points,  3 beta functions with:
                l(1) =   0
                l(2) =   1
                l(3) =   2

     PseudoPot. # 2 for O  read from file:
     ./o.upf
     MD5 check sum: 6afdad5913fe366ac5de9e6b2d735f4a
     Pseudo is Norm-conserving, Zval =  6.0
     Generated by new atomic code, or converted to UPF format
     Using radial grid of 1130 points,  1 beta functions with:
                l(1) =   1

     PseudoPot. # 3 for Zr read from file:
     ./zr.upf
     MD5 check sum: 4323fbb0604ce3758ff2f6a711565820
     Pseudo is Norm-conserving, Zval = 12.0
     Generated by new atomic code, or converted to UPF format
     Using radial grid of 1171 points,  3 beta functions with:
                l(1) =   0
                l(2) =   1
                l(3) =   2

     PseudoPot. # 4 for Ca read from file:
     ./ca.upf
     MD5 check sum: 9d40c44c50ef0ff3e83632165cb52c7c
     Pseudo is Norm-conserving, Zval = 10.0
     Generated by new atomic code, or converted to UPF format
     Using radial grid of 1153 points,  3 beta functions with:
                l(1) =   0
                l(2) =   1
                l(3) =   2

     atomic species   valence    mass     pseudopotential
        Ba            10.00   137.32700     Ba( 1.00)
        O              6.00    15.99940     O ( 1.00)
        Zr            12.00    47.86700     Zr( 1.00)
        Ca            10.00    40.08700     Ca( 1.00)

     No symmetry found

                                    s                        frac. trans.

      isym =  1     identity

 cryst.   s( 1) = (     1          0          0      )
                  (     0          1          0      )
                  (     0          0          1      )

 cart.    s( 1) = (  1.0000000  0.0000000  0.0000000 )
                  (  0.0000000  1.0000000  0.0000000 )
                  (  0.0000000  0.0000000  1.0000000 )

   Cartesian axes

     site n.     atom                  positions (alat units)
         1           Ca  tau(   1) = (   0.0624785   0.0256844   0.0002469  )
         2           Ca  tau(   2) = (   0.5624675   0.5214102   0.0002553  )
         3           Ca  tau(   3) = (   0.0624835   0.4699329   0.0002649  )
         4           Ca  tau(   4) = (   0.5624925  -0.0257887   0.0002558  )
         5           Ba  tau(   5) = (   0.0067634   0.0015486   0.4897070  )
         6           Ba  tau(   6) = (   0.0067833   0.4942198   0.4897055  )
         7           Ba  tau(   7) = (   0.5067741  -0.0015139   0.4896924  )
         8           Ba  tau(   8) = (   0.5067667   0.4972740   0.4896927  )
         9           Zr  tau(   9) = (   0.2633438   0.2478669   0.2439928  )
        10           Zr  tau(  10) = (   0.2633963   0.2478563   0.7353212  )
        11           Zr  tau(  11) = (   0.2546782   0.7435863   0.2355143  )
        12           Zr  tau(  12) = (   0.2547186   0.7435672   0.7439022  )
        13           Zr  tau(  13) = (   0.7546872   0.2478591   0.2355134  )
        14           Zr  tau(  14) = (   0.7547181   0.2478422   0.7438980  )
        15           Zr  tau(  15) = (   0.7633435   0.7436013   0.2439916  )
        16           Zr  tau(  16) = (   0.7633894   0.7435898   0.7353192  )
        17           O   tau(  17) = (   0.2346016   0.0006985   0.2328988  )
        18           O   tau(  18) = (   0.2347258   0.0006808   0.7464448  )
        19           O   tau(  19) = (   0.2344989   0.4950404   0.2330433  )
        20           O   tau(  20) = (   0.2345131   0.4950220   0.7463053  )
        21           O   tau(  21) = (   0.7344944  -0.0006803   0.2330900  )
        22           O   tau(  22) = (   0.7345010  -0.0006980   0.7462611  )
        23           O   tau(  23) = (   0.7346123   0.4964327   0.2328604  )
        24           O   tau(  24) = (   0.7347304   0.4964161   0.7464864  )
        25           O   tau(  25) = (   0.2711474   0.2480219   0.0002319  )
        26           O   tau(  26) = (   0.2092332   0.2478345   0.4896703  )
        27           O   tau(  27) = (   0.1761360   0.7435380   0.0002543  )
        28           O   tau(  28) = (   0.2858845   0.7436287   0.4896923  )
        29           O   tau(  29) = (   0.6761454   0.2477798   0.0002480  )
        30           O   tau(  30) = (   0.7858923   0.2479380   0.4896854  )
        31           O   tau(  31) = (   0.7711356   0.7438352   0.0002329  )
        32           O   tau(  32) = (   0.7092290   0.7435518   0.4896723  )
        33           O   tau(  33) = (  -0.0033143   0.2478182   0.1892311  )
        34           O   tau(  34) = (  -0.0032860   0.2477237   0.7901208  )
        35           O   tau(  35) = (  -0.0010112   0.7436472   0.2899405  )
        36           O   tau(  36) = (  -0.0009648   0.7436653   0.6894812  )
        37           O   tau(  37) = (   0.4989930   0.2479282   0.2899286  )
        38           O   tau(  38) = (   0.4990372   0.2479465   0.6894685  )
        39           O   tau(  39) = (   0.4966803   0.7435406   0.1892429  )
        40           O   tau(  40) = (   0.4967124   0.7434550   0.7901228  )

   Crystallographic axes

     site n.     atom                  positions (cryst. coord.)
         1           Ca  tau(   1) = (  0.0624785  0.0259057  0.0002522  )
         2           Ca  tau(   2) = (  0.5624675  0.5259034  0.0002608  )
         3           Ca  tau(   3) = (  0.0624835  0.4739825  0.0002706  )
         4           Ca  tau(   4) = (  0.5624925 -0.0260109  0.0002613  )
         5           Ba  tau(   5) = (  0.0067634  0.0015619  0.5002722  )
         6           Ba  tau(   6) = (  0.0067833  0.4984787  0.5002707  )
         7           Ba  tau(   7) = (  0.5067741 -0.0015269  0.5002573  )
         8           Ba  tau(   8) = (  0.5067667  0.5015591  0.5002576  )
         9           Zr  tau(   9) = (  0.2633438  0.2500029  0.2492568  )
        10           Zr  tau(  10) = (  0.2633963  0.2499922  0.7511854  )
        11           Zr  tau(  11) = (  0.2546782  0.7499940  0.2405954  )
        12           Zr  tau(  12) = (  0.2547186  0.7499747  0.7599515  )
        13           Zr  tau(  13) = (  0.7546872  0.2499950  0.2405945  )
        14           Zr  tau(  14) = (  0.7547181  0.2499779  0.7599472  )
        15           Zr  tau(  15) = (  0.7633435  0.7500091  0.2492556  )
        16           Zr  tau(  16) = (  0.7633894  0.7499976  0.7511833  )
        17           O   tau(  17) = (  0.2346016  0.0007046  0.2379235  )
        18           O   tau(  18) = (  0.2347258  0.0006867  0.7625489  )
        19           O   tau(  19) = (  0.2344989  0.4993063  0.2380711  )
        20           O   tau(  20) = (  0.2345131  0.4992877  0.7624065  )
        21           O   tau(  21) = (  0.7344944 -0.0006861  0.2381188  )
        22           O   tau(  22) = (  0.7345010 -0.0007041  0.7623613  )
        23           O   tau(  23) = (  0.7346123  0.5007106  0.2378843  )
        24           O   tau(  24) = (  0.7347304  0.5006939  0.7625915  )
        25           O   tau(  25) = (  0.2711474  0.2501592  0.0002369  )
        26           O   tau(  26) = (  0.2092332  0.2499701  0.5002347  )
        27           O   tau(  27) = (  0.1761360  0.7499453  0.0002598  )
        28           O   tau(  28) = (  0.2858845  0.7500368  0.5002571  )
        29           O   tau(  29) = (  0.6761454  0.2499150  0.0002534  )
        30           O   tau(  30) = (  0.7858923  0.2500746  0.5002501  )
        31           O   tau(  31) = (  0.7711356  0.7502451  0.0002380  )
        32           O   tau(  32) = (  0.7092290  0.7499592  0.5002367  )
        33           O   tau(  33) = ( -0.0033143  0.2499537  0.1933136  )
        34           O   tau(  34) = ( -0.0032860  0.2498584  0.8071672  )
        35           O   tau(  35) = ( -0.0010112  0.7500554  0.2961958  )
        36           O   tau(  36) = ( -0.0009648  0.7500737  0.7043564  )
        37           O   tau(  37) = (  0.4989930  0.2500647  0.2961836  )
        38           O   tau(  38) = (  0.4990372  0.2500831  0.7043435  )
        39           O   tau(  39) = (  0.4966803  0.7499479  0.1933257  )
        40           O   tau(  40) = (  0.4967124  0.7498615  0.8071693  )

     number of k points=    36
                       cart. coord. in units 2pi/alat
        k(    1) = (   0.0000000   0.0000000   0.0000000), wk =   0.0312500
[...]
     atom   18 type  2   force =     0.75255688   -0.45464040   -1.71849143
     atom   19 type  2   force =     0.74063696    0.45559423    1.72819557
     atom   20 type  2   force =     0.73913801    0.45485040   -1.72576774
     atom   21 type  2   force =     0.74023357    0.45549691    1.72874689
     atom   22 type  2   force =     0.73879679    0.45472890   -1.72632835
     atom   23 type  2   force =     0.75335990   -0.45561495    1.72056750
     atom   24 type  2   force =     0.75294646   -0.45478036   -1.71790908
     atom   25 type  2   force =     4.34146113    0.00167771   -0.00360305
     atom   26 type  2   force =    -1.61814646   -0.00377848   -0.00231328
     atom   27 type  2   force =    -2.51751762   -0.00282456    0.00107063
     atom   28 type  2   force =     1.29535092    0.00527313    0.00114366
     atom   29 type  2   force =    -2.51751995   -0.00241104    0.00106827
     atom   30 type  2   force =     1.29536506    0.00600456    0.00111451
     atom   31 type  2   force =     4.34147684    0.00203604   -0.00358852
     atom   32 type  2   force =    -1.61814567   -0.00452745   -0.00232086
     atom   33 type  2   force =    -0.15339695   -0.00432496    1.10997962
     atom   34 type  2   force =    -0.14870452   -0.00446247   -1.11021140
     atom   35 type  2   force =     1.11705670    0.00325783    1.76984243
     atom   36 type  2   force =     1.11928224    0.00376829   -1.76857909
     atom   37 type  2   force =     1.11704593    0.00364463    1.76985013
     atom   38 type  2   force =     1.11928386    0.00413020   -1.76855333
     atom   39 type  2   force =    -0.15339899   -0.00444096    1.10998879
     atom   40 type  2   force =    -0.14871410   -0.00456243   -1.11023050
     The local contribution  to forces
     atom    1 type  4   force =     5.30832546    3.25232883    0.00234149
     atom    2 type  4   force =     5.30787144    3.25252120    0.00230901
     atom    3 type  4   force =     5.31983441   -3.26294298    0.00265063
     atom    4 type  4   force =     5.32019716   -3.26279361    0.00264457
     atom    5 type  1   force =     0.87828805   -0.64564400    0.00080112
     atom    6 type  1   force =     0.88971421    0.64630460    0.00108762
     atom    7 type  1   force =     0.88987529    0.64618343    0.00108392
     atom    8 type  1   force =     0.87820531   -0.64578419    0.00085927
     atom    9 type  3   force =    -1.51144697    0.00817361   -3.16933121
     atom   10 type  3   force =    -1.50546326    0.00802990    3.16574987
     atom   11 type  3   force =    -1.31630272   -0.00366884   -2.66357826
     atom   12 type  3   force =    -1.31572986   -0.00357149    2.66262033
     atom   13 type  3   force =    -1.31631201   -0.00447876   -2.66350354
     atom   14 type  3   force =    -1.31573881   -0.00433396    2.66256701
     atom   15 type  3   force =    -1.51143259    0.00930638   -3.16931207
     atom   16 type  3   force =    -1.50549750    0.00909533    3.16571418
     atom   17 type  2   force =    -0.75387745    0.44487757   -1.70641244
     atom   18 type  2   force =    -0.75344298    0.44405003    1.70390834
     atom   19 type  2   force =    -0.74210026   -0.44514720   -1.71316545
     atom   20 type  2   force =    -0.74066106   -0.44443664    1.71090421
     atom   21 type  2   force =    -0.74172554   -0.44506601   -1.71369495
     atom   22 type  2   force =    -0.74034463   -0.44433519    1.71144401
     atom   23 type  2   force =    -0.75420184    0.44496063   -1.70584387
     atom   24 type  2   force =    -0.75380586    0.44416970    1.70334604
     atom   25 type  2   force =    -4.20484467   -0.00146700    0.00314663
     atom   26 type  2   force =     1.55424694    0.00388229    0.00200360
     atom   27 type  2   force =     2.32105013    0.00268112   -0.00095477
     atom   28 type  2   force =    -1.28162550   -0.00512804   -0.00094791
     atom   29 type  2   force =     2.32105142    0.00228749   -0.00095471
     atom   30 type  2   force =    -1.28163950   -0.00585036   -0.00092191
     atom   31 type  2   force =    -4.20485820   -0.00177464    0.00313341
     atom   32 type  2   force =     1.55424600    0.00462532    0.00201157
     atom   33 type  2   force =     0.28851663    0.00420679   -1.15024302
     atom   34 type  2   force =     0.28423347    0.00434974    1.15044830
     atom   35 type  2   force =    -0.94834906   -0.00316488   -1.72227446
     atom   36 type  2   force =    -0.95024135   -0.00365651    1.72119189
     atom   37 type  2   force =    -0.94833898   -0.00355572   -1.72227984
     atom   38 type  2   force =    -0.95024166   -0.00402294    1.72116824
     atom   39 type  2   force =     0.28851805    0.00433114   -1.15025250
     atom   40 type  2   force =     0.28424096    0.00445798    1.15046547
     The core correction contribution to forces
     atom    1 type  4   force =     0.00000000    0.00000000    0.00000000
     atom    2 type  4   force =     0.00000000    0.00000000    0.00000000
     atom    3 type  4   force =     0.00000000    0.00000000    0.00000000
     atom    4 type  4   force =     0.00000000    0.00000000    0.00000000
     atom    5 type  1   force =     0.00000000    0.00000000    0.00000000
     atom    6 type  1   force =     0.00000000    0.00000000    0.00000000
     atom    7 type  1   force =     0.00000000    0.00000000    0.00000000
     atom    8 type  1   force =     0.00000000    0.00000000    0.00000000
     atom    9 type  3   force =     0.00000000    0.00000000    0.00000000
     atom   10 type  3   force =     0.00000000    0.00000000    0.00000000
     atom   11 type  3   force =     0.00000000    0.00000000    0.00000000
     atom   12 type  3   force =     0.00000000    0.00000000    0.00000000
     atom   13 type  3   force =     0.00000000    0.00000000    0.00000000
     atom   14 type  3   force =     0.00000000    0.00000000    0.00000000
     atom   15 type  3   force =     0.00000000    0.00000000    0.00000000
     atom   16 type  3   force =     0.00000000    0.00000000    0.00000000
     atom   17 type  2   force =     0.00000000    0.00000000    0.00000000
     atom   18 type  2   force =     0.00000000    0.00000000    0.00000000
     atom   19 type  2   force =     0.00000000    0.00000000    0.00000000
     atom   20 type  2   force =     0.00000000    0.00000000    0.00000000
     atom   21 type  2   force =     0.00000000    0.00000000    0.00000000
     atom   22 type  2   force =     0.00000000    0.00000000    0.00000000
     atom   23 type  2   force =     0.00000000    0.00000000    0.00000000
     atom   24 type  2   force =     0.00000000    0.00000000    0.00000000
     atom   25 type  2   force =     0.00000000    0.00000000    0.00000000
     atom   26 type  2   force =     0.00000000    0.00000000    0.00000000
     atom   27 type  2   force =     0.00000000    0.00000000    0.00000000
     atom   28 type  2   force =     0.00000000    0.00000000    0.00000000
     atom   29 type  2   force =     0.00000000    0.00000000    0.00000000
     atom   30 type  2   force =     0.00000000    0.00000000    0.00000000
     atom   31 type  2   force =     0.00000000    0.00000000    0.00000000
     atom   32 type  2   force =     0.00000000    0.00000000    0.00000000
     atom   33 type  2   force =     0.00000000    0.00000000    0.00000000
     atom   34 type  2   force =     0.00000000    0.00000000    0.00000000
     atom   35 type  2   force =     0.00000000    0.00000000    0.00000000
     atom   36 type  2   force =     0.00000000    0.00000000    0.00000000
     atom   37 type  2   force =     0.00000000    0.00000000    0.00000000
     atom   38 type  2   force =     0.00000000    0.00000000    0.00000000
     atom   39 type  2   force =     0.00000000    0.00000000    0.00000000
     atom   40 type  2   force =     0.00000000    0.00000000    0.00000000
     The Hubbard contrib.    to forces
     atom    1 type  4   force =     0.00000000    0.00000000    0.00000000
     atom    2 type  4   force =     0.00000000    0.00000000    0.00000000
     atom    3 type  4   force =     0.00000000    0.00000000    0.00000000
     atom    4 type  4   force =     0.00000000    0.00000000    0.00000000
     atom    5 type  1   force =     0.00000000    0.00000000    0.00000000
     atom    6 type  1   force =     0.00000000    0.00000000    0.00000000
     atom    7 type  1   force =     0.00000000    0.00000000    0.00000000
     atom    8 type  1   force =     0.00000000    0.00000000    0.00000000
     atom    9 type  3   force =     0.00000000    0.00000000    0.00000000
     atom   10 type  3   force =     0.00000000    0.00000000    0.00000000
     atom   11 type  3   force =     0.00000000    0.00000000    0.00000000
     atom   12 type  3   force =     0.00000000    0.00000000    0.00000000
     atom   13 type  3   force =     0.00000000    0.00000000    0.00000000
     atom   14 type  3   force =     0.00000000    0.00000000    0.00000000
     atom   15 type  3   force =     0.00000000    0.00000000    0.00000000
     atom   16 type  3   force =     0.00000000    0.00000000    0.00000000
     atom   17 type  2   force =     0.00000000    0.00000000    0.00000000
     atom   18 type  2   force =     0.00000000    0.00000000    0.00000000
     atom   19 type  2   force =     0.00000000    0.00000000    0.00000000
     atom   20 type  2   force =     0.00000000    0.00000000    0.00000000
     atom   21 type  2   force =     0.00000000    0.00000000    0.00000000
     atom   22 type  2   force =     0.00000000    0.00000000    0.00000000
     atom   23 type  2   force =     0.00000000    0.00000000    0.00000000
     atom   24 type  2   force =     0.00000000    0.00000000    0.00000000
     atom   25 type  2   force =     0.00000000    0.00000000    0.00000000
     atom   26 type  2   force =     0.00000000    0.00000000    0.00000000
     atom   27 type  2   force =     0.00000000    0.00000000    0.00000000
     atom   28 type  2   force =     0.00000000    0.00000000    0.00000000
     atom   29 type  2   force =     0.00000000    0.00000000    0.00000000
     atom   30 type  2   force =     0.00000000    0.00000000    0.00000000
     atom   31 type  2   force =     0.00000000    0.00000000    0.00000000
     atom   32 type  2   force =     0.00000000    0.00000000    0.00000000
     atom   33 type  2   force =     0.00000000    0.00000000    0.00000000
     atom   34 type  2   force =     0.00000000    0.00000000    0.00000000
     atom   35 type  2   force =     0.00000000    0.00000000    0.00000000
     atom   36 type  2   force =     0.00000000    0.00000000    0.00000000
     atom   37 type  2   force =     0.00000000    0.00000000    0.00000000
     atom   38 type  2   force =     0.00000000    0.00000000    0.00000000
     atom   39 type  2   force =     0.00000000    0.00000000    0.00000000
     atom   40 type  2   force =     0.00000000    0.00000000    0.00000000
     The SCF correction term to forces
     atom    1 type  4   force =    -0.00000008   -0.00000012    0.00000000
     atom    2 type  4   force =    -0.00000011   -0.00000007    0.00000000
     atom    3 type  4   force =    -0.00000008    0.00000011    0.00000000
     atom    4 type  4   force =    -0.00000011    0.00000007   -0.00000000
     atom    5 type  1   force =    -0.00000001    0.00000006    0.00000000
     atom    6 type  1   force =    -0.00000001   -0.00000006   -0.00000000
     atom    7 type  1   force =    -0.00000000   -0.00000006   -0.00000000
     atom    8 type  1   force =    -0.00000000    0.00000006   -0.00000000
     atom    9 type  3   force =     0.00000003    0.00000000   -0.00000017
     atom   10 type  3   force =     0.00000003    0.00000000    0.00000016
     atom   11 type  3   force =     0.00000012   -0.00000000   -0.00000035
     atom   12 type  3   force =     0.00000012   -0.00000000    0.00000034
     atom   13 type  3   force =     0.00000008    0.00000000   -0.00000032
     atom   14 type  3   force =     0.00000008    0.00000000    0.00000032
     atom   15 type  3   force =    -0.00000002   -0.00000000   -0.00000016
     atom   16 type  3   force =    -0.00000002   -0.00000000    0.00000016
     atom   17 type  2   force =     0.00000003   -0.00000032   -0.00000023
     atom   18 type  2   force =     0.00000003   -0.00000030    0.00000022
     atom   19 type  2   force =     0.00000004    0.00000032   -0.00000022
     atom   20 type  2   force =     0.00000004    0.00000030    0.00000022
     atom   21 type  2   force =     0.00000001    0.00000030   -0.00000021
     atom   22 type  2   force =     0.00000000    0.00000030    0.00000021
     atom   23 type  2   force =     0.00000000   -0.00000030   -0.00000021
     atom   24 type  2   force =     0.00000000   -0.00000030    0.00000021
     atom   25 type  2   force =     0.00000000   -0.00000000   -0.00000000
     atom   26 type  2   force =    -0.00000003    0.00000000    0.00000001
     atom   27 type  2   force =     0.00000023    0.00000000    0.00000001
     atom   28 type  2   force =     0.00000002   -0.00000000   -0.00000001
     atom   29 type  2   force =     0.00000020    0.00000000    0.00000000
     atom   30 type  2   force =     0.00000001    0.00000000   -0.00000000
     atom   31 type  2   force =    -0.00000005   -0.00000000    0.00000000
     atom   32 type  2   force =    -0.00000005   -0.00000000   -0.00000000
     atom   33 type  2   force =    -0.00000033    0.00000000   -0.00000022
     atom   34 type  2   force =    -0.00000032   -0.00000000    0.00000022
     atom   35 type  2   force =     0.00000024    0.00000000   -0.00000022
     atom   36 type  2   force =     0.00000025    0.00000000    0.00000022
     atom   37 type  2   force =     0.00000023    0.00000000   -0.00000021
     atom   38 type  2   force =     0.00000022    0.00000000    0.00000021
     atom   39 type  2   force =    -0.00000032   -0.00000001   -0.00000025
     atom   40 type  2   force =    -0.00000031   -0.00000000    0.00000025

     Total force =     0.000092     Total SCF correction =     0.000002

     Computing stress (Cartesian axis) and pressure

          total   stress  (Ry/bohr**3)                   (kbar)     P=       -0.87
  -0.00001069  -0.00000030   0.00000004           -1.57       -0.04        0.01
  -0.00000030  -0.00000359  -0.00000001           -0.04       -0.53       -0.00
   0.00000004  -0.00000001  -0.00000337            0.01       -0.00       -0.50

     kinetic stress (kbar)  22747.38     -0.11      0.03
                               -0.11  22723.15     -0.01
                                0.03     -0.01  22735.15

     local   stress (kbar)  14009.86      1.92     -0.93
                                1.92   9815.22      0.32
                               -0.93      0.32  10230.74

     nonloc. stress (kbar) -15075.59      0.05     -0.02
                                0.05 -15057.52      0.00
                               -0.02      0.00 -15070.43

     hartree stress (kbar)   4494.89     -0.77      0.33
                               -0.77   5991.87     -0.10
                                0.33     -0.10   5931.30

     exc-cor stress (kbar)  -3987.53     -0.00      0.00
                               -0.00  -3984.57     -0.00
                                0.00     -0.00  -3985.75

     corecor stress (kbar)      0.00      0.00      0.00
                                0.00      0.00      0.00
                                0.00      0.00      0.00

     ewald   stress (kbar) -22190.59     -1.15      0.59
                               -1.15 -19488.69     -0.21
                                0.59     -0.21 -19841.50

     hubbard stress (kbar)      0.00      0.00      0.00
                                0.00      0.00      0.00
                                0.00      0.00      0.00

     DFT-D   stress (kbar)      0.00      0.00      0.00
                                0.00      0.00      0.00
                                0.00      0.00      0.00

     XDM     stress (kbar)      0.00      0.00      0.00
                                0.00      0.00      0.00
                                0.00      0.00      0.00

     dft-nl  stress (kbar)      0.00      0.00      0.00
                                0.00      0.00      0.00
                                0.00      0.00      0.00

     TS-vdW  stress (kbar)      0.00      0.00      0.00
                                0.00      0.00      0.00
                                0.00      0.00      0.00

     Writing output data file ./bto.save/

     General routines

     Parallel routines

   This run was terminated on:  12: 9:42   9Feb2021

   JOB DONE.